NAME: test40
TYPE: TSP
DIMENSION: 10
EDGE_WEIGHT_TYPE: EUC_2D
NODE_COORD_SECTION
1 57.27831679608173 21.973581828509214
2 92.55737879483088 23.597130363113592
3 39.38785762999822 69.37394537093229
4 83.76418717662054 66.1439798946899
5 68.21548485269713 91.98649355925602
6 33.37151065392011 92.19756704294085
7 28.406184354286555 25.315245351311034
8 70.52071010084013 53.746927261442856
9 57.13055174236046 39.553208164919404
10 97.13183398631008 9.157583369857935
EOF
